letting n =  10
letting blocks =  [[1, 1], [1, 4], [1, 6], [1, 7], [1, 9], [1, 10], [2, 4], [2, 8], [2, 9], [3, 1], [3, 8], [4, 2], [4, 5], [4, 6], [4, 7], [5, 1], [5, 4], [5, 7], [5, 9], [6, 3], [6, 5], [6, 9], [7, 1], [7, 3], [7, 5], [7, 6], [7, 9], [8, 1], [8, 3], [8, 5], [9, 3], [9, 4], [9, 7], [9, 8], [9, 9], [9, 10], [10, 1], [10, 2], [10, 3], [10, 5], [10, 6], [10, 7]]
